p cnf 24 35                 
-4 -3 -5 0
5 -7 0
3 4 -6 0
6 -7 0
7 -16 0
2 8 0
1 8 0
-2 -1 -8 0
8 -10 0
-1 9 0
-2 9 0
1 2 -9 0
9 -10 0
-8 -9 10 0
-10 -1 11 0
10 -3 11 0
-1 -3 11 0
-11 1 -13 0
13 -15 0
-10 -2 12 0
10 -4 12 0
-2 -4 12 0
-12 2 -14 0
14 -15 0
15 -16 0
-1 2 -17 0
17 -23 0
-1 -2 18 0
1 2 18 0
-2 2 18 0
-3 4 -19 0
-18 19 -20 0
20 -23 0
16 0
23 0
